(set-logic QF_LRA)
(declare-fun X0 () Real )
(declare-fun Y0 () Real )
(declare-fun X1 () Real )
(declare-fun Y1 () Real )
(declare-fun X2 () Real )
(declare-fun Y2 () Real )
(declare-fun X3 () Real )
(declare-fun Y3 () Real )
(declare-fun X4 () Real )
(declare-fun Y4 () Real )
(declare-fun X5 () Real )
(declare-fun Y5 () Real )
(declare-fun X6 () Real )
(declare-fun Y6 () Real )
(declare-fun X7 () Real )
(declare-fun Y7 () Real )
(declare-fun X8 () Real )
(declare-fun Y8 () Real )
(declare-fun X9 () Real )
(declare-fun Y9 () Real )
(declare-fun X10 () Real )
(declare-fun Y10 () Real )
(declare-fun X11 () Real )
(declare-fun Y11 () Real )
(declare-fun X12 () Real )
(declare-fun Y12 () Real )
(declare-fun X13 () Real )
(declare-fun Y13 () Real )
(declare-fun X14 () Real )
(declare-fun Y14 () Real )
(declare-fun Z () Real )
(assert ( and  
( or ( <= ( + X0 32 ) X1 )  ( <= ( + X1 56 ) X0 )  ( <= ( + Y0 49 ) Y1 )  ( <= ( + Y1 13 ) Y0 )  )
( or ( <= ( + X0 32 ) X2 )  ( <= ( + X2 1 ) X0 )  ( <= ( + Y0 49 ) Y2 )  ( <= ( + Y2 1 ) Y0 )  )
( or ( <= ( + X0 32 ) X3 )  ( <= ( + X3 49 ) X0 )  ( <= ( + Y0 49 ) Y3 )  ( <= ( + Y3 29 ) Y0 )  )
( or ( <= ( + X0 32 ) X4 )  ( <= ( + X4 26 ) X0 )  ( <= ( + Y0 49 ) Y4 )  ( <= ( + Y4 97 ) Y0 )  )
( or ( <= ( + X0 32 ) X5 )  ( <= ( + X5 78 ) X0 )  ( <= ( + Y0 49 ) Y5 )  ( <= ( + Y5 12 ) Y0 )  )
( or ( <= ( + X0 32 ) X6 )  ( <= ( + X6 58 ) X0 )  ( <= ( + Y0 49 ) Y6 )  ( <= ( + Y6 8 ) Y0 )  )
( or ( <= ( + X0 32 ) X7 )  ( <= ( + X7 25 ) X0 )  ( <= ( + Y0 49 ) Y7 )  ( <= ( + Y7 33 ) Y0 )  )
( or ( <= ( + X0 32 ) X8 )  ( <= ( + X8 66 ) X0 )  ( <= ( + Y0 49 ) Y8 )  ( <= ( + Y8 99 ) Y0 )  )
( or ( <= ( + X0 32 ) X9 )  ( <= ( + X9 99 ) X0 )  ( <= ( + Y0 49 ) Y9 )  ( <= ( + Y9 25 ) Y0 )  )
( or ( <= ( + X0 32 ) X10 )  ( <= ( + X10 60 ) X0 )  ( <= ( + Y0 49 ) Y10 )  ( <= ( + Y10 63 ) Y0 )  )
( or ( <= ( + X0 32 ) X11 )  ( <= ( + X11 93 ) X0 )  ( <= ( + Y0 49 ) Y11 )  ( <= ( + Y11 74 ) Y0 )  )
( or ( <= ( + X0 32 ) X12 )  ( <= ( + X12 46 ) X0 )  ( <= ( + Y0 49 ) Y12 )  ( <= ( + Y12 26 ) Y0 )  )
( or ( <= ( + X0 32 ) X13 )  ( <= ( + X13 38 ) X0 )  ( <= ( + Y0 49 ) Y13 )  ( <= ( + Y13 90 ) Y0 )  )
( or ( <= ( + X0 32 ) X14 )  ( <= ( + X14 52 ) X0 )  ( <= ( + Y0 49 ) Y14 )  ( <= ( + Y14 93 ) Y0 )  )
( or ( <= ( + X1 56 ) X2 )  ( <= ( + X2 1 ) X1 )  ( <= ( + Y1 13 ) Y2 )  ( <= ( + Y2 1 ) Y1 )  )
( or ( <= ( + X1 56 ) X3 )  ( <= ( + X3 49 ) X1 )  ( <= ( + Y1 13 ) Y3 )  ( <= ( + Y3 29 ) Y1 )  )
( or ( <= ( + X1 56 ) X4 )  ( <= ( + X4 26 ) X1 )  ( <= ( + Y1 13 ) Y4 )  ( <= ( + Y4 97 ) Y1 )  )
( or ( <= ( + X1 56 ) X5 )  ( <= ( + X5 78 ) X1 )  ( <= ( + Y1 13 ) Y5 )  ( <= ( + Y5 12 ) Y1 )  )
( or ( <= ( + X1 56 ) X6 )  ( <= ( + X6 58 ) X1 )  ( <= ( + Y1 13 ) Y6 )  ( <= ( + Y6 8 ) Y1 )  )
( or ( <= ( + X1 56 ) X7 )  ( <= ( + X7 25 ) X1 )  ( <= ( + Y1 13 ) Y7 )  ( <= ( + Y7 33 ) Y1 )  )
( or ( <= ( + X1 56 ) X8 )  ( <= ( + X8 66 ) X1 )  ( <= ( + Y1 13 ) Y8 )  ( <= ( + Y8 99 ) Y1 )  )
( or ( <= ( + X1 56 ) X9 )  ( <= ( + X9 99 ) X1 )  ( <= ( + Y1 13 ) Y9 )  ( <= ( + Y9 25 ) Y1 )  )
( or ( <= ( + X1 56 ) X10 )  ( <= ( + X10 60 ) X1 )  ( <= ( + Y1 13 ) Y10 )  ( <= ( + Y10 63 ) Y1 )  )
( or ( <= ( + X1 56 ) X11 )  ( <= ( + X11 93 ) X1 )  ( <= ( + Y1 13 ) Y11 )  ( <= ( + Y11 74 ) Y1 )  )
( or ( <= ( + X1 56 ) X12 )  ( <= ( + X12 46 ) X1 )  ( <= ( + Y1 13 ) Y12 )  ( <= ( + Y12 26 ) Y1 )  )
( or ( <= ( + X1 56 ) X13 )  ( <= ( + X13 38 ) X1 )  ( <= ( + Y1 13 ) Y13 )  ( <= ( + Y13 90 ) Y1 )  )
( or ( <= ( + X1 56 ) X14 )  ( <= ( + X14 52 ) X1 )  ( <= ( + Y1 13 ) Y14 )  ( <= ( + Y14 93 ) Y1 )  )
( or ( <= ( + X2 1 ) X3 )  ( <= ( + X3 49 ) X2 )  ( <= ( + Y2 1 ) Y3 )  ( <= ( + Y3 29 ) Y2 )  )
( or ( <= ( + X2 1 ) X4 )  ( <= ( + X4 26 ) X2 )  ( <= ( + Y2 1 ) Y4 )  ( <= ( + Y4 97 ) Y2 )  )
( or ( <= ( + X2 1 ) X5 )  ( <= ( + X5 78 ) X2 )  ( <= ( + Y2 1 ) Y5 )  ( <= ( + Y5 12 ) Y2 )  )
( or ( <= ( + X2 1 ) X6 )  ( <= ( + X6 58 ) X2 )  ( <= ( + Y2 1 ) Y6 )  ( <= ( + Y6 8 ) Y2 )  )
( or ( <= ( + X2 1 ) X7 )  ( <= ( + X7 25 ) X2 )  ( <= ( + Y2 1 ) Y7 )  ( <= ( + Y7 33 ) Y2 )  )
( or ( <= ( + X2 1 ) X8 )  ( <= ( + X8 66 ) X2 )  ( <= ( + Y2 1 ) Y8 )  ( <= ( + Y8 99 ) Y2 )  )
( or ( <= ( + X2 1 ) X9 )  ( <= ( + X9 99 ) X2 )  ( <= ( + Y2 1 ) Y9 )  ( <= ( + Y9 25 ) Y2 )  )
( or ( <= ( + X2 1 ) X10 )  ( <= ( + X10 60 ) X2 )  ( <= ( + Y2 1 ) Y10 )  ( <= ( + Y10 63 ) Y2 )  )
( or ( <= ( + X2 1 ) X11 )  ( <= ( + X11 93 ) X2 )  ( <= ( + Y2 1 ) Y11 )  ( <= ( + Y11 74 ) Y2 )  )
( or ( <= ( + X2 1 ) X12 )  ( <= ( + X12 46 ) X2 )  ( <= ( + Y2 1 ) Y12 )  ( <= ( + Y12 26 ) Y2 )  )
( or ( <= ( + X2 1 ) X13 )  ( <= ( + X13 38 ) X2 )  ( <= ( + Y2 1 ) Y13 )  ( <= ( + Y13 90 ) Y2 )  )
( or ( <= ( + X2 1 ) X14 )  ( <= ( + X14 52 ) X2 )  ( <= ( + Y2 1 ) Y14 )  ( <= ( + Y14 93 ) Y2 )  )
( or ( <= ( + X3 49 ) X4 )  ( <= ( + X4 26 ) X3 )  ( <= ( + Y3 29 ) Y4 )  ( <= ( + Y4 97 ) Y3 )  )
( or ( <= ( + X3 49 ) X5 )  ( <= ( + X5 78 ) X3 )  ( <= ( + Y3 29 ) Y5 )  ( <= ( + Y5 12 ) Y3 )  )
( or ( <= ( + X3 49 ) X6 )  ( <= ( + X6 58 ) X3 )  ( <= ( + Y3 29 ) Y6 )  ( <= ( + Y6 8 ) Y3 )  )
( or ( <= ( + X3 49 ) X7 )  ( <= ( + X7 25 ) X3 )  ( <= ( + Y3 29 ) Y7 )  ( <= ( + Y7 33 ) Y3 )  )
( or ( <= ( + X3 49 ) X8 )  ( <= ( + X8 66 ) X3 )  ( <= ( + Y3 29 ) Y8 )  ( <= ( + Y8 99 ) Y3 )  )
( or ( <= ( + X3 49 ) X9 )  ( <= ( + X9 99 ) X3 )  ( <= ( + Y3 29 ) Y9 )  ( <= ( + Y9 25 ) Y3 )  )
( or ( <= ( + X3 49 ) X10 )  ( <= ( + X10 60 ) X3 )  ( <= ( + Y3 29 ) Y10 )  ( <= ( + Y10 63 ) Y3 )  )
( or ( <= ( + X3 49 ) X11 )  ( <= ( + X11 93 ) X3 )  ( <= ( + Y3 29 ) Y11 )  ( <= ( + Y11 74 ) Y3 )  )
( or ( <= ( + X3 49 ) X12 )  ( <= ( + X12 46 ) X3 )  ( <= ( + Y3 29 ) Y12 )  ( <= ( + Y12 26 ) Y3 )  )
( or ( <= ( + X3 49 ) X13 )  ( <= ( + X13 38 ) X3 )  ( <= ( + Y3 29 ) Y13 )  ( <= ( + Y13 90 ) Y3 )  )
( or ( <= ( + X3 49 ) X14 )  ( <= ( + X14 52 ) X3 )  ( <= ( + Y3 29 ) Y14 )  ( <= ( + Y14 93 ) Y3 )  )
( or ( <= ( + X4 26 ) X5 )  ( <= ( + X5 78 ) X4 )  ( <= ( + Y4 97 ) Y5 )  ( <= ( + Y5 12 ) Y4 )  )
( or ( <= ( + X4 26 ) X6 )  ( <= ( + X6 58 ) X4 )  ( <= ( + Y4 97 ) Y6 )  ( <= ( + Y6 8 ) Y4 )  )
( or ( <= ( + X4 26 ) X7 )  ( <= ( + X7 25 ) X4 )  ( <= ( + Y4 97 ) Y7 )  ( <= ( + Y7 33 ) Y4 )  )
( or ( <= ( + X4 26 ) X8 )  ( <= ( + X8 66 ) X4 )  ( <= ( + Y4 97 ) Y8 )  ( <= ( + Y8 99 ) Y4 )  )
( or ( <= ( + X4 26 ) X9 )  ( <= ( + X9 99 ) X4 )  ( <= ( + Y4 97 ) Y9 )  ( <= ( + Y9 25 ) Y4 )  )
( or ( <= ( + X4 26 ) X10 )  ( <= ( + X10 60 ) X4 )  ( <= ( + Y4 97 ) Y10 )  ( <= ( + Y10 63 ) Y4 )  )
( or ( <= ( + X4 26 ) X11 )  ( <= ( + X11 93 ) X4 )  ( <= ( + Y4 97 ) Y11 )  ( <= ( + Y11 74 ) Y4 )  )
( or ( <= ( + X4 26 ) X12 )  ( <= ( + X12 46 ) X4 )  ( <= ( + Y4 97 ) Y12 )  ( <= ( + Y12 26 ) Y4 )  )
( or ( <= ( + X4 26 ) X13 )  ( <= ( + X13 38 ) X4 )  ( <= ( + Y4 97 ) Y13 )  ( <= ( + Y13 90 ) Y4 )  )
( or ( <= ( + X4 26 ) X14 )  ( <= ( + X14 52 ) X4 )  ( <= ( + Y4 97 ) Y14 )  ( <= ( + Y14 93 ) Y4 )  )
( or ( <= ( + X5 78 ) X6 )  ( <= ( + X6 58 ) X5 )  ( <= ( + Y5 12 ) Y6 )  ( <= ( + Y6 8 ) Y5 )  )
( or ( <= ( + X5 78 ) X7 )  ( <= ( + X7 25 ) X5 )  ( <= ( + Y5 12 ) Y7 )  ( <= ( + Y7 33 ) Y5 )  )
( or ( <= ( + X5 78 ) X8 )  ( <= ( + X8 66 ) X5 )  ( <= ( + Y5 12 ) Y8 )  ( <= ( + Y8 99 ) Y5 )  )
( or ( <= ( + X5 78 ) X9 )  ( <= ( + X9 99 ) X5 )  ( <= ( + Y5 12 ) Y9 )  ( <= ( + Y9 25 ) Y5 )  )
( or ( <= ( + X5 78 ) X10 )  ( <= ( + X10 60 ) X5 )  ( <= ( + Y5 12 ) Y10 )  ( <= ( + Y10 63 ) Y5 )  )
( or ( <= ( + X5 78 ) X11 )  ( <= ( + X11 93 ) X5 )  ( <= ( + Y5 12 ) Y11 )  ( <= ( + Y11 74 ) Y5 )  )
( or ( <= ( + X5 78 ) X12 )  ( <= ( + X12 46 ) X5 )  ( <= ( + Y5 12 ) Y12 )  ( <= ( + Y12 26 ) Y5 )  )
( or ( <= ( + X5 78 ) X13 )  ( <= ( + X13 38 ) X5 )  ( <= ( + Y5 12 ) Y13 )  ( <= ( + Y13 90 ) Y5 )  )
( or ( <= ( + X5 78 ) X14 )  ( <= ( + X14 52 ) X5 )  ( <= ( + Y5 12 ) Y14 )  ( <= ( + Y14 93 ) Y5 )  )
( or ( <= ( + X6 58 ) X7 )  ( <= ( + X7 25 ) X6 )  ( <= ( + Y6 8 ) Y7 )  ( <= ( + Y7 33 ) Y6 )  )
( or ( <= ( + X6 58 ) X8 )  ( <= ( + X8 66 ) X6 )  ( <= ( + Y6 8 ) Y8 )  ( <= ( + Y8 99 ) Y6 )  )
( or ( <= ( + X6 58 ) X9 )  ( <= ( + X9 99 ) X6 )  ( <= ( + Y6 8 ) Y9 )  ( <= ( + Y9 25 ) Y6 )  )
( or ( <= ( + X6 58 ) X10 )  ( <= ( + X10 60 ) X6 )  ( <= ( + Y6 8 ) Y10 )  ( <= ( + Y10 63 ) Y6 )  )
( or ( <= ( + X6 58 ) X11 )  ( <= ( + X11 93 ) X6 )  ( <= ( + Y6 8 ) Y11 )  ( <= ( + Y11 74 ) Y6 )  )
( or ( <= ( + X6 58 ) X12 )  ( <= ( + X12 46 ) X6 )  ( <= ( + Y6 8 ) Y12 )  ( <= ( + Y12 26 ) Y6 )  )
( or ( <= ( + X6 58 ) X13 )  ( <= ( + X13 38 ) X6 )  ( <= ( + Y6 8 ) Y13 )  ( <= ( + Y13 90 ) Y6 )  )
( or ( <= ( + X6 58 ) X14 )  ( <= ( + X14 52 ) X6 )  ( <= ( + Y6 8 ) Y14 )  ( <= ( + Y14 93 ) Y6 )  )
( or ( <= ( + X7 25 ) X8 )  ( <= ( + X8 66 ) X7 )  ( <= ( + Y7 33 ) Y8 )  ( <= ( + Y8 99 ) Y7 )  )
( or ( <= ( + X7 25 ) X9 )  ( <= ( + X9 99 ) X7 )  ( <= ( + Y7 33 ) Y9 )  ( <= ( + Y9 25 ) Y7 )  )
( or ( <= ( + X7 25 ) X10 )  ( <= ( + X10 60 ) X7 )  ( <= ( + Y7 33 ) Y10 )  ( <= ( + Y10 63 ) Y7 )  )
( or ( <= ( + X7 25 ) X11 )  ( <= ( + X11 93 ) X7 )  ( <= ( + Y7 33 ) Y11 )  ( <= ( + Y11 74 ) Y7 )  )
( or ( <= ( + X7 25 ) X12 )  ( <= ( + X12 46 ) X7 )  ( <= ( + Y7 33 ) Y12 )  ( <= ( + Y12 26 ) Y7 )  )
( or ( <= ( + X7 25 ) X13 )  ( <= ( + X13 38 ) X7 )  ( <= ( + Y7 33 ) Y13 )  ( <= ( + Y13 90 ) Y7 )  )
( or ( <= ( + X7 25 ) X14 )  ( <= ( + X14 52 ) X7 )  ( <= ( + Y7 33 ) Y14 )  ( <= ( + Y14 93 ) Y7 )  )
( or ( <= ( + X8 66 ) X9 )  ( <= ( + X9 99 ) X8 )  ( <= ( + Y8 99 ) Y9 )  ( <= ( + Y9 25 ) Y8 )  )
( or ( <= ( + X8 66 ) X10 )  ( <= ( + X10 60 ) X8 )  ( <= ( + Y8 99 ) Y10 )  ( <= ( + Y10 63 ) Y8 )  )
( or ( <= ( + X8 66 ) X11 )  ( <= ( + X11 93 ) X8 )  ( <= ( + Y8 99 ) Y11 )  ( <= ( + Y11 74 ) Y8 )  )
( or ( <= ( + X8 66 ) X12 )  ( <= ( + X12 46 ) X8 )  ( <= ( + Y8 99 ) Y12 )  ( <= ( + Y12 26 ) Y8 )  )
( or ( <= ( + X8 66 ) X13 )  ( <= ( + X13 38 ) X8 )  ( <= ( + Y8 99 ) Y13 )  ( <= ( + Y13 90 ) Y8 )  )
( or ( <= ( + X8 66 ) X14 )  ( <= ( + X14 52 ) X8 )  ( <= ( + Y8 99 ) Y14 )  ( <= ( + Y14 93 ) Y8 )  )
( or ( <= ( + X9 99 ) X10 )  ( <= ( + X10 60 ) X9 )  ( <= ( + Y9 25 ) Y10 )  ( <= ( + Y10 63 ) Y9 )  )
( or ( <= ( + X9 99 ) X11 )  ( <= ( + X11 93 ) X9 )  ( <= ( + Y9 25 ) Y11 )  ( <= ( + Y11 74 ) Y9 )  )
( or ( <= ( + X9 99 ) X12 )  ( <= ( + X12 46 ) X9 )  ( <= ( + Y9 25 ) Y12 )  ( <= ( + Y12 26 ) Y9 )  )
( or ( <= ( + X9 99 ) X13 )  ( <= ( + X13 38 ) X9 )  ( <= ( + Y9 25 ) Y13 )  ( <= ( + Y13 90 ) Y9 )  )
( or ( <= ( + X9 99 ) X14 )  ( <= ( + X14 52 ) X9 )  ( <= ( + Y9 25 ) Y14 )  ( <= ( + Y14 93 ) Y9 )  )
( or ( <= ( + X10 60 ) X11 )  ( <= ( + X11 93 ) X10 )  ( <= ( + Y10 63 ) Y11 )  ( <= ( + Y11 74 ) Y10 )  )
( or ( <= ( + X10 60 ) X12 )  ( <= ( + X12 46 ) X10 )  ( <= ( + Y10 63 ) Y12 )  ( <= ( + Y12 26 ) Y10 )  )
( or ( <= ( + X10 60 ) X13 )  ( <= ( + X13 38 ) X10 )  ( <= ( + Y10 63 ) Y13 )  ( <= ( + Y13 90 ) Y10 )  )
( or ( <= ( + X10 60 ) X14 )  ( <= ( + X14 52 ) X10 )  ( <= ( + Y10 63 ) Y14 )  ( <= ( + Y14 93 ) Y10 )  )
( or ( <= ( + X11 93 ) X12 )  ( <= ( + X12 46 ) X11 )  ( <= ( + Y11 74 ) Y12 )  ( <= ( + Y12 26 ) Y11 )  )
( or ( <= ( + X11 93 ) X13 )  ( <= ( + X13 38 ) X11 )  ( <= ( + Y11 74 ) Y13 )  ( <= ( + Y13 90 ) Y11 )  )
( or ( <= ( + X11 93 ) X14 )  ( <= ( + X14 52 ) X11 )  ( <= ( + Y11 74 ) Y14 )  ( <= ( + Y14 93 ) Y11 )  )
( or ( <= ( + X12 46 ) X13 )  ( <= ( + X13 38 ) X12 )  ( <= ( + Y12 26 ) Y13 )  ( <= ( + Y13 90 ) Y12 )  )
( or ( <= ( + X12 46 ) X14 )  ( <= ( + X14 52 ) X12 )  ( <= ( + Y12 26 ) Y14 )  ( <= ( + Y14 93 ) Y12 )  )
( or ( <= ( + X13 38 ) X14 )  ( <= ( + X14 52 ) X13 )  ( <= ( + Y13 90 ) Y14 )  ( <= ( + Y14 93 ) Y13 )  )
( >= X0 0)
( <= ( + X0 32) Z)
( >= Y0 0)
( <= ( + Y0 49 ) 193)
( >= X1 0)
( <= ( + X1 56) Z)
( >= Y1 0)
( <= ( + Y1 13 ) 193)
( >= X2 0)
( <= ( + X2 1) Z)
( >= Y2 0)
( <= ( + Y2 1 ) 193)
( >= X3 0)
( <= ( + X3 49) Z)
( >= Y3 0)
( <= ( + Y3 29 ) 193)
( >= X4 0)
( <= ( + X4 26) Z)
( >= Y4 0)
( <= ( + Y4 97 ) 193)
( >= X5 0)
( <= ( + X5 78) Z)
( >= Y5 0)
( <= ( + Y5 12 ) 193)
( >= X6 0)
( <= ( + X6 58) Z)
( >= Y6 0)
( <= ( + Y6 8 ) 193)
( >= X7 0)
( <= ( + X7 25) Z)
( >= Y7 0)
( <= ( + Y7 33 ) 193)
( >= X8 0)
( <= ( + X8 66) Z)
( >= Y8 0)
( <= ( + Y8 99 ) 193)
( >= X9 0)
( <= ( + X9 99) Z)
( >= Y9 0)
( <= ( + Y9 25 ) 193)
( >= X10 0)
( <= ( + X10 60) Z)
( >= Y10 0)
( <= ( + Y10 63 ) 193)
( >= X11 0)
( <= ( + X11 93) Z)
( >= Y11 0)
( <= ( + Y11 74 ) 193)
( >= X12 0)
( <= ( + X12 46) Z)
( >= Y12 0)
( <= ( + Y12 26 ) 193)
( >= X13 0)
( <= ( + X13 38) Z)
( >= Y13 0)
( <= ( + Y13 90 ) 193)
( >= X14 0)
( <= ( + X14 52) Z)
( >= Y14 0)
( <= ( + Y14 93 ) 193)
) )
(minimize Z)
(check-sat)
